(set-info :smt-lib-version 2.6)
(set-logic UFLIA)
(set-info :source |
Generated by: Geoff Sutcliffe
Generated on: 2026-03-11
Generator: TPTPWorld
Application: Benchmarking automated theorem provers
Time limit: 120.0

These benchmarks are translations from the TPTP Library (Thousands of
Problems for Theorem Provers), see http://www.cs.miami.edu/~tptp/

The TPTP is maintained by Geoff Sutcliffe, and he contributed this
selection of benchmarks to SMT-LIB.  They were exported from the
v9.2.1 realease of TPTP.
|)
(set-info :category "industrial")
(set-info :status "unknown")
; SZS status Success
(declare-sort $$unsorted 0)

(declare-sort tptp.general 0)
(declare-sort tptp.symbol 0)
(declare-fun tptp.f__integer__ (Int) tptp.general)
(declare-fun tptp.f__symbolic__ (tptp.symbol) tptp.general)
(declare-fun tptp.c__infimum__ () tptp.general)
(declare-fun tptp.c__supremum__ () tptp.general)
(declare-fun tptp.p__is_integer__ (tptp.general) Bool)
(declare-fun tptp.p__is_symbolic__ (tptp.general) Bool)
(declare-fun tptp.p__less_equal__ (tptp.general tptp.general) Bool)
(declare-fun tptp.p__less__ (tptp.general tptp.general) Bool)
(declare-fun tptp.p__greater_equal__ (tptp.general tptp.general) Bool)
(declare-fun tptp.p__greater__ (tptp.general tptp.general) Bool)
(assert (forall ((X tptp.general)) (= (tptp.p__is_integer__ X) (exists ((N Int)) (= X (tptp.f__integer__ N))))))
(assert (forall ((X1 tptp.general)) (= (tptp.p__is_symbolic__ X1) (exists ((X2 tptp.symbol)) (= X1 (tptp.f__symbolic__ X2))))))
(assert (forall ((X tptp.general)) (or (= X tptp.c__infimum__) (tptp.p__is_integer__ X) (tptp.p__is_symbolic__ X) (= X tptp.c__supremum__))))
(assert (forall ((N1 Int) (N2 Int)) (= (= (tptp.f__integer__ N1) (tptp.f__integer__ N2)) (= N1 N2))))
(assert (forall ((S1 tptp.symbol) (S2 tptp.symbol)) (= (= (tptp.f__symbolic__ S1) (tptp.f__symbolic__ S2)) (= S1 S2))))
(assert (forall ((N1 Int) (N2 Int)) (= (tptp.p__less_equal__ (tptp.f__integer__ N1) (tptp.f__integer__ N2)) (<= N1 N2))))
(assert (forall ((X1 tptp.general) (X2 tptp.general)) (=> (and (tptp.p__less_equal__ X1 X2) (tptp.p__less_equal__ X2 X1)) (= X1 X2))))
(assert (forall ((X1 tptp.general) (X2 tptp.general) (X3 tptp.general)) (=> (and (tptp.p__less_equal__ X1 X2) (tptp.p__less_equal__ X2 X3)) (tptp.p__less_equal__ X1 X3))))
(assert (forall ((X1 tptp.general) (X2 tptp.general)) (or (tptp.p__less_equal__ X1 X2) (tptp.p__less_equal__ X2 X1))))
(assert (forall ((X1 tptp.general) (X2 tptp.general)) (= (tptp.p__less__ X1 X2) (and (tptp.p__less_equal__ X1 X2) (not (= X1 X2))))))
(assert (forall ((X1 tptp.general) (X2 tptp.general)) (= (tptp.p__greater_equal__ X1 X2) (tptp.p__less_equal__ X2 X1))))
(assert (forall ((X1 tptp.general) (X2 tptp.general)) (= (tptp.p__greater__ X1 X2) (and (tptp.p__less_equal__ X2 X1) (not (= X1 X2))))))
(assert (forall ((N Int)) (tptp.p__less__ tptp.c__infimum__ (tptp.f__integer__ N))))
(assert (forall ((N Int) (S tptp.symbol)) (tptp.p__less__ (tptp.f__integer__ N) (tptp.f__symbolic__ S))))
(assert (forall ((S tptp.symbol)) (tptp.p__less__ (tptp.f__symbolic__ S) tptp.c__supremum__)))
(declare-fun tptp.s (tptp.general tptp.general) Bool)
(declare-fun tptp.covered (tptp.general) Bool)
(declare-fun tptp.in_cover (tptp.general) Bool)
(declare-fun tptp.n_i () Int)
(assert (>= tptp.n_i 0))
(assert (forall ((Y_g tptp.general)) (=> (exists ((X_g tptp.general)) (tptp.s X_g Y_g)) (exists ((I_i Int)) (and (= Y_g (tptp.f__integer__ I_i)) (>= I_i 1) (<= I_i tptp.n_i))))))
(assert (forall ((V1_g tptp.general)) (= (tptp.covered V1_g) (exists ((X_g tptp.general) (I_g tptp.general)) (and (= V1_g X_g) (exists ((Z_g tptp.general)) (and (= Z_g I_g) (tptp.in_cover Z_g))) (exists ((Z_g tptp.general) (Z1_g tptp.general)) (and (= Z_g X_g) (= Z1_g I_g) (tptp.s Z_g Z1_g))))))))
(assert (forall ((I_g tptp.general) (J_g tptp.general) (X_g tptp.general)) (=> (and (exists ((Z_g tptp.general) (Z1_g tptp.general)) (and (= Z_g I_g) (= Z1_g J_g) (not (= Z_g Z1_g)))) (exists ((Z_g tptp.general)) (and (= Z_g I_g) (tptp.in_cover Z_g))) (exists ((Z_g tptp.general)) (and (= Z_g J_g) (tptp.in_cover Z_g))) (exists ((Z_g tptp.general) (Z1_g tptp.general)) (and (= Z_g X_g) (= Z1_g I_g) (tptp.s Z_g Z1_g))) (exists ((Z_g tptp.general) (Z1_g tptp.general)) (and (= Z_g X_g) (= Z1_g J_g) (tptp.s Z_g Z1_g)))) false)))
(assert (forall ((X_g tptp.general) (I_g tptp.general)) (=> (and (exists ((Z_g tptp.general) (Z1_g tptp.general)) (and (= Z_g X_g) (= Z1_g I_g) (tptp.s Z_g Z1_g))) (exists ((Z_g tptp.general)) (and (= Z_g X_g) (not (tptp.covered Z_g))))) false)))
(assert (forall ((V1_g tptp.general)) (let ((_let_1 (tptp.in_cover V1_g))) (= _let_1 (and (exists ((I_i Int) (J_i Int) (K_i Int)) (and (= I_i 1) (= J_i tptp.n_i) (= V1_g (tptp.f__integer__ K_i)) (<= I_i K_i) (<= K_i J_i))) true (not (not _let_1)))))))
(assert (not (forall ((Y_g tptp.general)) (=> (tptp.in_cover Y_g) (exists ((I_i Int)) (and (= Y_g (tptp.f__integer__ I_i)) (>= I_i 1) (<= I_i tptp.n_i)))))))
(check-sat)
(exit)
